40
120
8 6
11 4
10 3
4 7
12 6
11 6
12 8
3 6
4 3
3 8
9 1
1 3
8 6
11 3
11 1
9 8
9 1
11 5
1 7
7 8
10 3
2 8
8 3
7 3
8 4
2 7
12 7
1 2
3 8
1 1
12 7
3 4
8 4
11 5
5 6
8 8
4 1
10 3
12 7
12 3
10 7
5 4
3 2
7 7
11 8
10 5
4 7
5 4
2 3
3 3
8 3
11 4
8 1
8 7
6 5
8 5
4 8
8 8
7 2
6 2
9 2
7 6
1 5
5 2
11 4
11 3
3 1
9 2
11 7
10 4
5 4
11 2
7 3
12 6
11 5
2 6
10 4
10 4
1 3
2 4
5 6
11 1
1 1
7 7
3 8
10 8
4 7
7 6
9 5
5 2
7 3
11 6
9 7
7 6
9 6
4 2
4 6
3 1
12 4
4 2
9 5
6 7
2 1
6 5
11 4
4 2
8 6
1 6
5 5
5 5
10 5
11 8
2 6
1 5
6 3
11 5
9 6
8 4
12 7
8 3
